KPT-Resolved Value to Generate K-Mesh: 0.040
0
Gamma
   6   6   5
0.0  0.0  0.0
