Ti6 Al2
1.0
        5.7508478165         0.0000000000         0.0000000000
       -2.8754239082         4.9803803024         0.0000000000
        0.0000000000         0.0000000000         4.6552820206
   Ti   Al
    6    2
Direct
     0.660585003         0.830292587         0.750000000
     0.830292598         0.660585031         0.250000000
     0.830292594         0.169707520         0.250000000
     0.169707522         0.830292587         0.750000000
     0.169707520         0.339415040         0.750000000
     0.339415009         0.169707520         0.250000000
     0.666666682         0.333333365         0.750000000
     0.333333365         0.666666730         0.250000000
