Ti6 Al2                                 
   1.00000000000000     
     5.7362391558659551   -0.0000000000001467    0.0000000000000000
    -2.8681195778832316    4.9677288311756280   -0.0000000000000000
     0.0000000000000000    0.0000000000000000    4.6395127385444663
   Ti   Al
     6     2
Direct
  0.6605455377474921  0.8302728543737478  0.7500000000000000
  0.8302728653737451  0.6605455657474874  0.2500000000000000
  0.8302728613737448  0.1697272526262575  0.2500000000000000
  0.1697272546262577  0.8302728543737478  0.7500000000000000
  0.1697272526262575  0.3394545052525079  0.7500000000000000
  0.3394544742525089  0.1697272526262575  0.2500000000000000
  0.6666666819999989  0.3333333650000014  0.7500000000000000
  0.3333333650000014  0.6666667300000029  0.2500000000000000
 
  0.00000000E+00  0.00000000E+00  0.00000000E+00
  0.00000000E+00  0.00000000E+00  0.00000000E+00
  0.00000000E+00  0.00000000E+00  0.00000000E+00
  0.00000000E+00  0.00000000E+00  0.00000000E+00
  0.00000000E+00  0.00000000E+00  0.00000000E+00
  0.00000000E+00  0.00000000E+00  0.00000000E+00
  0.00000000E+00  0.00000000E+00  0.00000000E+00
  0.00000000E+00  0.00000000E+00  0.00000000E+00
