#TiAl input by GAOYUE
		
units         metal		
atom_style    atomic		
		
boundary      p p p		
		
read_data     dataTi3Al2000k.txt	
	
velocity   all create 2000  561912
	
pair_style    eam/alloy		
pair_coeff    * * TiAl.eam.alloy Ti Al		
		
		
timestep      1.0e-3	
		
neighbor      2.0 bin		
neigh_modify  every 1 delay 10 check yes		
thermo 100	
fix 2 all npt temp 2000 2000 1.0 iso 0  0 0.1 drag 0.2
dump 4 all custom 40000 dump_Ti3Al_eq.out id type x y z
run 400000
unfix 2
undump 4

fix 2 all npt temp 2000 200 1.0 iso 0  0 0.1 drag 0.2

thermo 1000
dump 3 all custom 100000 dump_Ti3Al_cool.out id type x y z

run 180000000


fix         1 all npt temp 200 300 0.5 aniso 0 0 1
dump        1 all custom 1000 Ti3Al_npt.xyz id type x y z
run          100000
unfix        1
undump       1

#-------------------Stress and strain setting----
variable           tmpx equal "lx"
variable           tmpy equal "ly"
variable           tmpz equal "lz"

variable        Lx0 equal ${tmpx}
variable        Ly0 equal ${tmpy}
variable        Lz0 equal ${tmpz}

variable        strainx equal "(lx - v_Lx0)/v_Lx0"
variable        strainy equal "(ly - v_Ly0)/v_Ly0"
variable        strainz equal "(lz - v_Lz0)/v_Lz0"

variable        stressx equal "-pxx/10000"
variable        stressy equal "-pyy/10000"
variable        stressz equal "-pzz/10000"

#-------------------Stress and strain saved to file------------------------
fix         def3 all print 100 "${strainx} ${stressx} ${strainy} ${stressy} ${strainz} ${stressz}" &
          file stress-strain.dat screen no

#-------------------Triaxial tensile----------
fix          1 all nve
fix          2 all temp/rescale 10 300 300 10 1.0
fix           3 all deform 100 x erate 0.005 y erate 0.005 z erate 0.005 remap x units box
dump        1 all custom 1000 Ti3Al_tension.xyz id type x y z
run         500000




