#gy the lattice constant of Ti3Al
#basic settings
units		metal
boundary 	p  p  p
atom_style	atomic


variable	 i  loop  120
variable	 a  equal 0.8+0.01*$i
variable     b  equal sqrt(3)
variable     c  equal sqrt(8/3)


#build the model
lattice custom   ${a}      &
    a1       5.7508478165         0.0000000000         0.0000000000      &
    a2      -2.8754239082         4.9803803024         0.0000000000      &
    a3      0.0000000000         0.0000000000         4.6552820206        &
	basis   0.660585003         0.830292587         0.750000000 &
	basis   0.830292598         0.660585031         0.250000000 &
	basis   0.830292594         0.169707520         0.250000000 &
	basis   0.169707522         0.830292587         0.750000000  &
	basis   0.169707520         0.339415040         0.750000000  &
	basis   0.339415009         0.169707520         0.250000000  &
	basis   0.666666682         0.333333365         0.750000000  &
	basis   0.333333365         0.666666730         0.250000000  &
	
region   box  block    0   5   0   5   0   5   units  lattice
create_box    2    box

create_atoms	2    region  box  &
basis  1  1  &
basis  2  1  &
basis  3  1  &
basis  4  1  &
basis  5  1  &
basis  6  1  &
basis  7  2  &
basis  8  2  &




#specify the potential

pair_style    eam/alloy		
pair_coeff    * * TiAl.eam.alloy Ti Al		


mass		   1 	47.8670 #Ti

mass		   2 	26.9815 #Al


write_data		data.txt

#define some variables
variable	n  equal  count(all)
variable	P  equal  pe/$n

#calculate the static energy
run			0

#print the result
print		"@ $a $P"

#loop
clear
next		i
jump		lattice.in