POSCAR file written by Ovito 3.0.0-dev597
0.70
11.5016956 0.0 0.0
-5.7508478 9.9607605762 0.0
0.0 0.0 9.310564
Al Ti 
16 48 
Cartesian
2.8754239288 1.6601267461 3.4914615
-2.8754238324e-08 3.320253542 1.1638205
2.8754239288 1.6601267461 8.1467435
-2.8754238324e-08 3.320253542 5.8191025
2.8754241654e-08 6.6405070342 3.4914615
-2.8754239288 8.3006338301 1.1638205
2.8754241654e-08 6.6405070342 8.1467435
-2.8754239288 8.3006338301 5.8191025
8.6262717288 1.6601267461 3.4914615
5.7508477712 3.320253542 1.1638205
8.6262717288 1.6601267461 8.1467435
5.7508477712 3.320253542 5.8191025
5.7508478288 6.6405070342 3.4914615
2.8754238712 8.3006338301 1.1638205
5.7508478288 6.6405070342 8.1467435
2.8754238712 8.3006338301 5.8191025
1.4114808955 4.1351724004 3.4914615
2.8754239 3.2899645126 1.1638205
4.2869047955 0.8452078877 1.1638205
-1.4114808955 4.1351724004 3.4914615
4.4408920985e-16 1.6904157755 3.4914615
1.4639430045 0.8452078877 1.1638205
1.4114808955 4.1351724004 8.1467435
2.8754239 3.2899645126 5.8191025
4.2869047955 0.8452078877 5.8191025
-1.4114808955 4.1351724004 8.1467435
4.4408920985e-16 1.6904157755 8.1467435
1.4639430045 0.8452078877 5.8191025
-1.4639430045 9.1155526885 3.4914615
1.7763568394e-15 8.2703448007 1.1638205
1.4114808955 5.8255881758 1.1638205
-4.2869047955 9.1155526885 3.4914615
-2.8754239 6.6707960636 3.4914615
-1.4114808955 5.8255881758 1.1638205
-1.4639430045 9.1155526885 8.1467435
1.7763568394e-15 8.2703448007 5.8191025
1.4114808955 5.8255881758 5.8191025
-4.2869047955 9.1155526885 8.1467435
-2.8754239 6.6707960636 8.1467435
-1.4114808955 5.8255881758 5.8191025
7.1623286955 4.1351724004 3.4914615
8.6262717 3.2899645126 1.1638205
10.0377525955 0.8452078877 1.1638205
4.3393669045 4.1351724004 3.4914615
5.7508478 1.6904157755 3.4914615
7.2147908045 0.8452078877 1.1638205
7.1623286955 4.1351724004 8.1467435
8.6262717 3.2899645126 5.8191025
10.0377525955 0.8452078877 5.8191025
4.3393669045 4.1351724004 8.1467435
5.7508478 1.6904157755 8.1467435
7.2147908045 0.8452078877 5.8191025
4.2869047955 9.1155526885 3.4914615
5.7508478 8.2703448007 1.1638205
7.1623286955 5.8255881758 1.1638205
1.4639430045 9.1155526885 3.4914615
2.8754239 6.6707960636 3.4914615
4.3393669045 5.8255881758 1.1638205
4.2869047955 9.1155526885 8.1467435
5.7508478 8.2703448007 5.8191025
7.1623286955 5.8255881758 5.8191025
1.4639430045 9.1155526885 8.1467435
2.8754239 6.6707960636 8.1467435
4.3393669045 5.8255881758 5.8191025
